 $CONTRL DFTTYP=B3LYP ISPHER=1 RUNTYP=FFIELD $END
 $BASIS GBASIS=CCT $END
 $FFCALC OFFDIA=.FALSE. $END
 $SCF DIRSCF=.TRUE. $END
 $SYSTEM MWORDS=125 $END

