 $CONTRL DFTTYP=B3LYP ISPHER=1 RUNTYP=OPTIMIZE $END
 $BASIS GBASIS=CCT $END
 $PCM SOLVNT=H2O $END
 $SCF DIRSCF=.TRUE. $END
 $ELPOT  IEPOT=1 WHERE=PDC OUTPUT=BOTH $END
 $PDC PTSEL=CONNOLLY CONSTR=NONE PTDENS=1.68017 $END
 $STATPT PROJCT=.FALSE. $END
 $GUESS GUESS=HUCKEL $END
 $SYSTEM MWORDS=125 $END

