 $CONTRL DFTTYP=B3LYP ISPHER=1 RUNTYP=OPTIMIZE $END
 $BASIS GBASIS=CCT $END
 $SCF DIRSCF=.TRUE. $END
 $STATPT PROJCT=.FALSE. $END
 $SYSTEM MWORDS=125 $END

